data/results/2026_03_24_16_34_20_set_vm-3-t3_vm-3-t3_s001_g002_max.sol
# Objective value = 526
c_n1n2n5n6n7n8n10 7
c_n2n3n4n5n6n7n10 7
c_n2n5n6n7n8n10 5
c_n1n5n6n7n8n10 5
c_n1n2n6n7n8n10 6
c_n1n2n5n7n8n10 5
c_n1n2n5n6n8n10 5
c_n1n2n5n6n7n10 6
c_n1n2n5n6n7n8 5
c_n3n4n5n6n7n10 5
c_n2n4n5n6n7n10 6
c_n2n3n5n6n7n10 5
c_n2n3n4n6n7n10 5
c_n2n3n4n5n7n10 5
c_n2n3n4n5n6n10 6
c_n2n3n4n5n6n7 5
c_n5n6n7n8n10 3
c_n2n6n7n8n10 4
c_n2n5n7n8n10 3
c_n2n5n6n8n10 4
c_n2n5n6n7n10 5
c_n2n5n6n7n8 3
c_n1n6n7n8n10 4
c_n1n5n7n8n10 4
c_n1n5n6n8n10 3
c_n1n5n6n7n10 4
c_n1n5n6n7n8 4
c_n1n2n7n8n10 4
c_n1n2n6n8n10 4
c_n1n2n6n7n10 5
c_n1n2n6n7n8 5
c_n1n2n5n8n10 4
c_n1n2n5n7n10 4
c_n1n2n5n7n8 3
c_n1n2n5n6n10 4
c_n1n2n5n6n8 3
c_n1n2n5n6n7 4
c_n4n5n6n7n10 4
c_n3n5n6n7n10 3
c_n3n4n6n7n10 3
c_n3n4n5n7n10 4
c_n3n4n5n6n10 4
c_n3n4n5n6n7 4
c_n2n4n6n7n10 4
c_n2n4n5n7n10 4
c_n2n4n5n6n10 5
c_n2n4n5n6n7 4
c_n2n3n6n7n10 4
c_n2n3n5n7n10 3
c_n2n3n5n6n10 4
c_n2n3n5n6n7 3
c_n2n3n4n7n10 3
c_n2n3n4n6n10 4
c_n2n3n4n6n7 4
c_n2n3n4n5n10 5
c_n2n3n4n5n7 3
c_n2n3n4n5n6 4
c_n6n7n8n10 2
c_n5n7n8n10 2
c_n5n6n8n10 2
c_n5n6n7n10 3
c_n5n6n7n8 2
c_n2n7n8n10 2
c_n2n6n8n10 3
c_n2n6n7n10 4
c_n2n6n7n8 3
c_n2n5n8n10 3
c_n2n5n7n10 3
c_n2n5n7n8 1
c_n2n5n6n10 4
c_n2n5n6n8 2
c_n2n5n6n7 3
c_n1n7n8n10 3
c_n1n6n8n10 2
c_n1n6n7n10 3
c_n1n6n7n8 4
c_n1n5n8n10 3
c_n1n5n7n10 3
c_n1n5n7n8 3
c_n1n5n6n10 2
c_n1n5n6n8 2
c_n1n5n6n7 3
c_n1n2n8n10 3
c_n1n2n7n10 3
c_n1n2n7n8 3
c_n1n2n6n10 3
c_n1n2n6n8 3
c_n1n2n6n7 4
c_n1n2n5n10 3
c_n1n2n5n8 2
c_n1n2n5n7 2
c_n1n2n5n6 2
c_n4n6n7n10 2
c_n4n5n7n10 3
c_n4n5n6n10 3
c_n4n5n6n7 3
c_n3n6n7n10 2
c_n3n5n7n10 2
c_n3n5n6n10 2
c_n3n5n6n7 2
c_n3n4n7n10 2
c_n3n4n6n10 2
c_n3n4n6n7 3
c_n3n4n5n10 4
c_n3n4n5n7 3
c_n3n4n5n6 3
c_n2n4n7n10 2
c_n2n4n6n10 3
c_n2n4n6n7 3
c_n2n4n5n10 4
c_n2n4n5n7 2
c_n2n4n5n6 3
c_n2n3n7n10 2
c_n2n3n6n10 3
c_n2n3n6n7 3
c_n2n3n5n10 3
c_n2n3n5n7 1
c_n2n3n5n6 2
c_n2n3n4n10 3
c_n2n3n4n7 2
c_n2n3n4n6 3
c_n2n3n4n5 3
c_n7n8n10 1
c_n6n8n10 1
c_n6n7n10 2
c_n6n7n8 2
c_n5n8n10 2
c_n5n7n10 2
c_n5n7n8 1
c_n5n6n10 2
c_n5n6n8 1
c_n5n6n7 2
c_n2n8n10 2
c_n2n7n10 2
c_n2n7n8 1
c_n2n6n10 3
c_n2n6n8 2
c_n2n6n7 3
c_n2n5n10 3
c_n2n5n8 1
c_n2n5n7 1
c_n2n5n6 2
c_n1n8n10 2
c_n1n7n10 2
c_n1n7n8 3
c_n1n6n10 1
c_n1n6n8 2
c_n1n6n7 3
c_n1n5n10 2
c_n1n5n8 2
c_n1n5n7 2
c_n1n5n6 1
c_n1n2n10 2
c_n1n2n8 2
c_n1n2n7 2
c_n1n2n6 2
c_n1n2n5 1
c_n4n7n10 1
c_n4n6n10 1
c_n4n6n7 2
c_n4n5n10 3
c_n4n5n7 2
c_n4n5n6 2
c_n3n7n10 1
c_n3n6n10 1
c_n3n6n7 2
c_n3n5n10 2
c_n3n5n7 1
c_n3n5n6 1
c_n3n4n10 2
c_n3n4n7 2
c_n3n4n6 2
c_n3n4n5 3
c_n2n4n10 2
c_n2n4n7 1
c_n2n4n6 2
c_n2n4n5 2
c_n2n3n10 2
c_n2n3n7 1
c_n2n3n6 2
c_n2n3n5 1
c_n2n3n4 2
y_n0n1 0
y_n1n2 0
y_n0n2 0
y_n1n3 0
y_n0n3 0
y_n1n4 0
y_n0n4 0
y_n1n5 0
y_n0n5 0
y_n1n6 0
y_n0n6 0
y_n1n7 0
y_n0n7 0
y_n1n8 1
y_n0n8 0
y_n1n9 0
y_n0n9 0
y_n1n10 0
y_n0n10 0
y_n2n3 0
y_n2n4 0
y_n2n5 0
y_n2n6 1
y_n2n7 1
y_n2n8 1
y_n2n9 0
y_n2n10 0
y_n3n4 1
y_n3n5 1
y_n3n6 1
y_n3n7 1
y_n3n8 1
y_n3n9 0
y_n3n10 1
y_n4n5 1
y_n4n6 1
y_n4n7 1
y_n4n8 1
y_n4n9 0
y_n4n10 1
y_n5n6 1
y_n5n7 1
y_n5n8 1
y_n5n9 0
y_n5n10 1
y_n6n7 1
y_n6n8 1
y_n6n9 0
y_n6n10 0
y_n7n8 1
y_n7n9 0
y_n7n10 0
y_n8n9 0
y_n8n10 0
y_n9n10 1
pos_n0 10
pos_n1 8
pos_n2 5
pos_n3 1
pos_n4 2
pos_n5 3
pos_n6 6
pos_n7 7
pos_n8 9
pos_n9 0
pos_n10 4
z_n2n10 1
z_n5n10 1
z_n6n10 0
z_n8n10 0
z_n7n10 0
z_n2n5 0
z_n2n6 1
z_n2n8 0
z_n2n7 0
z_n5n6 0
z_n5n8 0
z_n5n7 0
z_n6n8 0
z_n6n7 1
z_n7n8 0
z_n1n10 0
z_n1n5 0
z_n1n6 0
z_n1n8 1
z_n1n7 1
z_n1n4 0
z_n1n3 0
z_n4n10 0
z_n3n10 0
z_n4n5 1
z_n3n5 0
z_n4n6 0
z_n3n6 0
z_n4n8 0
z_n3n8 0
z_n4n7 0
z_n3n7 0
z_n3n4 1
z_n2n4 0
z_n2n3 0
z_n1n2 0
z_n1n9 0
z_n9n10 0
z_n2n9 0
z_n5n9 0
z_n6n9 0
z_n8n9 0
z_n4n9 0
z_n3n9 0
z_n0n1 0
z_n0n2 0
z_n0n5 0
z_n0n6 0
z_n0n8 0
z_n0n7 0
z_n0n4 0
z_n0n3 0
